Route #1: 1 1 21 42 28 19 26 43 1 
Route #2: 1 41 3 44 2 48 40 12 33 31 30 16 1 
Route #3: 1 17 8 39 10 23 38 22 1 
Route #4: 1 13 14 6 7 11 24 1 
Route #5: 1 29 32 46 35 45 1 
Route #6: 1 5 47 1 
Route #7: 1 20 27 37 9 25 36 1 
Route #8: 1 18 4 49 34 15 1 

Cost 1394.9
Time 0.4086


 * Another infos *

 Iterations: 50 Time: 0.4086 sec - 0.0068 min - 0.0001 horas
0.0000 h 0.0068 min
Problem dimension: 50
